unknown
(model
; cardinality of BoundSet is 2
(declare-sort BoundSet 0)
; rep: @uc_BoundSet_0
; rep: @uc_BoundSet_1
; cardinality of UnboundSet is 1
(declare-sort UnboundSet 0)
(declare-fun groundTerm_3 () UnboundSet)
(define-fun IsLittle ((BOUND_VARIABLE_444 BoundSet)) Bool true)
(define-fun FlipsOmelet ((BOUND_VARIABLE_444 BoundSet)) Bool true)
(define-fun IsYoung ((BOUND_VARIABLE_444 BoundSet)) Bool false)
(define-fun CooksPancakes ((BOUND_VARIABLE_444 BoundSet)) Bool false)
)
sat
(model
; cardinality of BoundSet is 1
(declare-sort BoundSet 0)
; rep: @uc_BoundSet_0
; cardinality of UnboundSet is 1
(declare-sort UnboundSet 0)
(declare-fun groundTerm_9 () UnboundSet)
(define-fun IsLittle ((BOUND_VARIABLE_515 BoundSet)) Bool true)
(define-fun FlipsOmelet ((BOUND_VARIABLE_515 BoundSet)) Bool true)
(define-fun IsYoung ((BOUND_VARIABLE_515 BoundSet)) Bool true)
(define-fun CooksPancakes ((BOUND_VARIABLE_515 BoundSet)) Bool false)
)
